(set-info :smt-lib-version 2.6)
(set-logic LIA)
(set-info
  :source |
 Generated by PSyCO 0.1
 More info in N. P. Lopes and J. Monteiro. Weakest Precondition Synthesis for
 Compiler Optimizations, VMCAI'14.
|)
(set-info :category "industrial")
(set-info :status unsat)
(declare-fun W_S2_V5 () Bool)
(declare-fun W_S2_V2 () Bool)
(declare-fun W_S2_V3 () Bool)
(declare-fun W_S2_V1 () Bool)
(declare-fun W_S1_V4 () Bool)
(declare-fun W_S1_V5 () Bool)
(declare-fun W_S1_V2 () Bool)
(declare-fun W_S1_V1 () Bool)
(declare-fun R_S1_V1 () Bool)
(declare-fun R_E1_V4 () Bool)
(declare-fun R_E1_V5 () Bool)
(declare-fun R_E1_V2 () Bool)
(declare-fun R_E1_V3 () Bool)
(declare-fun DISJ_W_S2_R_E1 () Bool)
(declare-fun R_S2_V4 () Bool)
(declare-fun R_S2_V5 () Bool)
(declare-fun R_S2_V2 () Bool)
(declare-fun R_S2_V3 () Bool)
(declare-fun R_S2_V1 () Bool)
(declare-fun DISJ_W_S2_R_S2 () Bool)
(declare-fun R_S1_V4 () Bool)
(declare-fun R_S1_V5 () Bool)
(declare-fun R_S1_V2 () Bool)
(declare-fun R_S1_V3 () Bool)
(declare-fun DISJ_W_S2_R_S1 () Bool)
(declare-fun DISJ_W_S1_W_S2 () Bool)
(declare-fun DISJ_W_S1_R_E1 () Bool)
(declare-fun DISJ_W_S1_R_S2 () Bool)
(declare-fun DISJ_W_S1_R_S1 () Bool)
(declare-fun W_S2_V4 () Bool)
(declare-fun W_S1_V3 () Bool)
(declare-fun R_E1_V1 () Bool)
(assert
 (let
 (($x2824
   (forall
    ((V3_0 Int) (V2_0 Int) 
     (V5_0 Int) (V4_0 Int) 
     (MW_S1_V1 Bool) (MW_S1_V3 Bool) 
     (MW_S1_V2 Bool) (MW_S1_V5 Bool) 
     (MW_S1_V4 Bool) (MW_S2_V1 Bool) 
     (MW_S2_V3 Bool) (MW_S2_V2 Bool) 
     (MW_S2_V5 Bool) (MW_S2_V4 Bool) 
     (S1_V1_!390 Int) (S1_V1_!397 Int) 
     (S2_V5_!405 Int) (S1_V3_!391 Int) 
     (S1_V3_!398 Int) (S1_V2_!392 Int) 
     (S1_V2_!399 Int) (E1_!389 Int) 
     (E1_!395 Int) (E1_!396 Int) 
     (S2_V4_!406 Int) (S1_V5_!393 Int) 
     (S1_V5_!400 Int) (S2_V1_!402 Int) 
     (S1_V4_!394 Int) (S1_V4_!401 Int) 
     (S2_V2_!404 Int) (S2_V3_!403 Int))
    (let ((?x2297 (ite MW_S1_V4 S1_V4_!401 V4_0)))
    (let ((?x2462 (ite MW_S2_V4 S2_V4_!406 ?x2297)))
    (let ((?x2533 (ite MW_S1_V4 S1_V4_!394 V4_0)))
    (let (($x2449 (= ?x2533 ?x2462)))
    (let ((?x2484 (ite MW_S1_V5 S1_V5_!400 V5_0)))
    (let ((?x2457 (ite MW_S2_V5 S2_V5_!405 ?x2484)))
    (let ((?x2480 (ite MW_S1_V5 S1_V5_!393 V5_0)))
    (let (($x2460 (= ?x2480 ?x2457)))
    (let ((?x2505 (ite MW_S1_V2 S1_V2_!399 V2_0)))
    (let ((?x2458 (ite MW_S2_V2 S2_V2_!404 ?x2505)))
    (let ((?x2531 (ite MW_S1_V2 S1_V2_!392 V2_0)))
    (let (($x2473 (= ?x2531 ?x2458)))
    (let ((?x2495 (ite MW_S1_V3 S1_V3_!398 V3_0)))
    (let ((?x2530 (ite MW_S2_V3 S2_V3_!403 ?x2495)))
    (let ((?x2539 (ite MW_S1_V3 S1_V3_!391 V3_0)))
    (let (($x2542 (= ?x2539 ?x2530)))
    (let ((?x2497 (ite MW_S1_V1 S1_V1_!397 E1_!396)))
    (let ((?x2431 (ite MW_S2_V1 S2_V1_!402 ?x2497)))
    (let ((?x2478 (+ 1 ?x2431)))
    (let (($x2527 (= E1_!395 ?x2478)))
    (let (($x2597 (and $x2527 $x2542 $x2473 $x2460 $x2449)))
    (let ((?x2585 (+ (- 1) ?x2458)))
    (let (($x2595 (>= ?x2431 ?x2585)))
    (let (($x2584 (<= V2_0 E1_!396)))
    (let (($x2918 (not $x2584)))
    (let (($x2586 (>= E1_!395 ?x2531)))
    (let ((?x2575 (+ (- 1) ?x2531)))
    (let ((?x2904 (ite MW_S1_V1 S1_V1_!390 E1_!389)))
    (let (($x2903 (>= ?x2904 ?x2575)))
    (let (($x2900 (<= V2_0 E1_!389)))
    (let (($x2598 (not $x2900)))
    (let (($x2563 (and $x2598 $x2903 $x2586 $x2918 $x2595)))
    (let (($x2901 (not $x2563)))
    (let (($x2909 (not MW_S2_V5)))
    (let (($x2617 (or $x2909 W_S2_V5)))
    (let (($x2880 (not MW_S2_V2)))
    (let (($x2616 (or $x2880 W_S2_V2)))
    (let (($x2914 (not MW_S2_V3)))
    (let (($x2748 (or $x2914 W_S2_V3)))
    (let (($x2741 (not MW_S2_V1)))
    (let (($x2757 (or $x2741 W_S2_V1)))
    (let (($x2854 (not MW_S1_V4)))
    (let (($x2742 (or $x2854 W_S1_V4)))
    (let (($x2743 (not MW_S1_V5)))
    (let (($x2855 (or $x2743 W_S1_V5)))
    (let (($x2856 (not MW_S1_V2)))
    (let (($x2861 (or $x2856 W_S1_V2)))
    (let (($x2853 (not MW_S1_V1)))
    (let (($x2863 (or $x2853 W_S1_V1)))
    (let (($x2865 (= S1_V4_!401 S1_V4_!394)))
    (let (($x2580 (= E1_!396 E1_!389)))
    (let (($x198 (not R_S1_V1)))
    (let (($x2877 (or $x198 $x2580)))
    (let (($x2703 (not $x2877)))
    (let (($x2881 (or $x2703 $x2865)))
    (let (($x2872 (= S1_V5_!393 S1_V5_!400)))
    (let (($x2873 (= E1_!389 E1_!396)))
    (let (($x2704 (or $x198 $x2873)))
    (let (($x2860 (not $x2704)))
    (let (($x2869 (or $x2860 $x2872)))
    (let (($x2871 (= E1_!396 E1_!395)))
    (let (($x2884 (= V4_0 ?x2533)))
    (let (($x161 (not R_E1_V4)))
    (let (($x2601 (or $x161 $x2884)))
    (let (($x2898 (= V5_0 ?x2480)))
    (let (($x159 (not R_E1_V5)))
    (let (($x2910 (or $x159 $x2898)))
    (let (($x2722 (= V2_0 ?x2531)))
    (let (($x157 (not R_E1_V2)))
    (let (($x2760 (or $x157 $x2722)))
    (let (($x2911 (= V3_0 ?x2539)))
    (let (($x155 (not R_E1_V3)))
    (let (($x2451 (or $x155 $x2911)))
    (let (($x2831 (and $x2451 $x2760 $x2910 $x2601)))
    (let (($x2832 (not $x2831)))
    (let (($x2834 (or $x2832 $x2871)))
    (let (($x2859 (= E1_!389 E1_!395)))
    (let (($x2833 (or $x2832 $x2859)))
    (let (($x2847 (= S1_V2_!399 S1_V2_!392)))
    (let (($x2839 (or $x2703 $x2847)))
    (let (($x2837 (= S1_V3_!391 S1_V3_!398)))
    (let (($x2838 (or $x2860 $x2837)))
    (let (($x2848 (= S1_V1_!390 S1_V1_!397)))
    (let (($x2849 (or $x2860 $x2848)))
    (let
    (($x2835
      (and $x2849 $x2838 $x2839 $x2833 $x2580 $x2834 $x2869 $x2881 $x2863
      $x2861 $x2855 $x2742 $x2757 $x2748 $x2616 $x2617)))
    (let (($x2836 (not $x2835))) (or $x2836 $x2901 $x2597))))))))))))))))))))))))))))))))))))))))))))))))))))))))))))))))))))))))))))))))))))))))))
 (let (($x90 (and W_S2_V5 R_E1_V5)))
 (let (($x89 (and W_S2_V2 R_E1_V2)))
 (let (($x88 (and W_S2_V3 R_E1_V3)))
 (let (($x2845 (or $x88 $x89 $x90 R_E1_V4)))
 (let (($x2829 (not $x2845)))
 (let (($x2830 (= DISJ_W_S2_R_E1 $x2829)))
 (let (($x81 (and W_S2_V5 R_S2_V5)))
 (let (($x80 (and W_S2_V2 R_S2_V2)))
 (let (($x79 (and W_S2_V3 R_S2_V3)))
 (let (($x78 (and W_S2_V1 R_S2_V1)))
 (let (($x113 (or $x78 $x79 $x80 $x81 R_S2_V4)))
 (let (($x114 (not $x113)))
 (let (($x115 (= DISJ_W_S2_R_S2 $x114)))
 (let (($x72 (and W_S2_V5 R_S1_V5)))
 (let (($x71 (and W_S2_V2 R_S1_V2)))
 (let (($x70 (and W_S2_V3 R_S1_V3)))
 (let (($x69 (and W_S2_V1 R_S1_V1)))
 (let (($x110 (or $x69 $x70 $x71 $x72 R_S1_V4)))
 (let (($x111 (not $x110)))
 (let (($x112 (= DISJ_W_S2_R_S1 $x111)))
 (let (($x63 (and W_S1_V5 W_S2_V5)))
 (let (($x61 (and W_S1_V2 W_S2_V2)))
 (let (($x57 (and W_S1_V1 W_S2_V1)))
 (let (($x107 (or $x57 W_S2_V3 $x61 $x63 W_S1_V4)))
 (let (($x108 (not $x107)))
 (let (($x109 (= DISJ_W_S1_W_S2 $x108)))
 (let (($x51 (and W_S1_V4 R_E1_V4)))
 (let (($x49 (and W_S1_V5 R_E1_V5)))
 (let (($x47 (and W_S1_V2 R_E1_V2)))
 (let (($x2842 (or R_E1_V3 $x47 $x49 $x51)))
 (let (($x2843 (not $x2842)))
 (let (($x2844 (= DISJ_W_S1_R_E1 $x2843)))
 (let (($x37 (and W_S1_V4 R_S2_V4)))
 (let (($x35 (and W_S1_V5 R_S2_V5)))
 (let (($x33 (and W_S1_V2 R_S2_V2)))
 (let (($x29 (and W_S1_V1 R_S2_V1)))
 (let (($x101 (or $x29 R_S2_V3 $x33 $x35 $x37)))
 (let (($x102 (not $x101)))
 (let (($x103 (= DISJ_W_S1_R_S2 $x102)))
 (let (($x23 (and W_S1_V4 R_S1_V4)))
 (let (($x20 (and W_S1_V5 R_S1_V5)))
 (let (($x17 (and W_S1_V2 R_S1_V2)))
 (let (($x12 (and W_S1_V1 R_S1_V1)))
 (let (($x98 (or $x12 R_S1_V3 $x17 $x20 $x23)))
 (let (($x99 (not $x98)))
 (let (($x100 (= DISJ_W_S1_R_S1 $x99)))
 (let (($x153 (not R_E1_V1)))
 (and $x153 W_S1_V3 W_S2_V4 $x100 $x103 $x2844 $x109 $x112 $x115 $x2830
 $x2824))))))))))))))))))))))))))))))))))))))))))))))))))
(assert
 (let (($x2350 (not W_S1_V2)))
 (let (($x2644 (and $x2350 DISJ_W_S1_R_E1))) (not $x2644))))
(check-sat)
(exit)

